(set-info :status unknown)
(declare-const symbol_100004 (_ BitVec 32))
(declare-const symbol_100020 (_ BitVec 32))
(declare-const symbol_100006 (_ BitVec 32))
(declare-const symbol_100021 (_ BitVec 32))
(declare-const symbol_100002 (_ BitVec 32))
(declare-const symbol_100018 (_ BitVec 32))
(declare-const symbol_100010 (_ BitVec 32))
(declare-const symbol_100011 (_ BitVec 32))
(declare-const symbol_100001 (_ BitVec 32))
(declare-const symbol_100019 (_ BitVec 32))
(declare-const symbol_100015 (_ BitVec 32))
(declare-const symbol_100013 (_ BitVec 32))
(declare-const symbol_100000 (_ BitVec 32))
(declare-const symbol_100005 (_ BitVec 32))
(declare-const symbol_100014 (_ BitVec 32))
(declare-const symbol_100007 (_ BitVec 32))
(declare-const symbol_100009 (_ BitVec 32))
(declare-const symbol_100023 (_ BitVec 32))
(declare-const symbol_100022 (_ BitVec 32))
(declare-const symbol_100008 (_ BitVec 32))
(declare-const symbol_100016 (_ BitVec 32))
(declare-const symbol_100003 (_ BitVec 32))
(declare-const symbol_100025 (_ BitVec 32))
(declare-const symbol_100017 (_ BitVec 32))
(declare-const symbol_100024 (_ BitVec 32))
(declare-const symbol_100012 (_ BitVec 32))
(assert (= symbol_100007 symbol_100025))
(assert (not (= symbol_100006 symbol_100025)))
(assert (not (= symbol_100005 symbol_100025)))
(assert (not (= symbol_100004 symbol_100025)))
(assert (not (= symbol_100003 symbol_100025)))
(assert (not (= symbol_100002 symbol_100025)))
(assert (not (= symbol_100001 symbol_100025)))
(assert (not (= symbol_100000 symbol_100025)))
(assert (not (= symbol_100023 symbol_100024)))
(assert (not (= symbol_100022 symbol_100024)))
(assert (not (= symbol_100021 symbol_100024)))
(assert (not (= symbol_100020 symbol_100024)))
(assert (not (= symbol_100019 symbol_100024)))
(assert (not (= symbol_100018 symbol_100024)))
(assert (not (= symbol_100017 symbol_100024)))
(assert (not (= symbol_100016 symbol_100024)))
(assert (not (= symbol_100015 symbol_100024)))
(assert (not (= symbol_100014 symbol_100024)))
(assert (not (= symbol_100013 symbol_100024)))
(assert (not (= symbol_100012 symbol_100024)))
(assert (not (= symbol_100011 symbol_100024)))
(assert (not (= symbol_100010 symbol_100024)))
(assert (not (= symbol_100009 symbol_100024)))
(assert (not (= symbol_100008 symbol_100024)))
(assert (not (= symbol_100007 symbol_100024)))
(assert (not (= symbol_100006 symbol_100024)))
(assert (not (= symbol_100005 symbol_100024)))
(assert (not (= symbol_100004 symbol_100024)))
(assert (not (= symbol_100003 symbol_100024)))
(assert (not (= symbol_100002 symbol_100024)))
(assert (not (= symbol_100001 symbol_100024)))
(assert (not (= symbol_100000 symbol_100024)))
(assert (not (= symbol_100022 symbol_100023)))
(assert (not (= symbol_100021 symbol_100023)))
(assert (not (= symbol_100020 symbol_100023)))
(assert (not (= symbol_100019 symbol_100023)))
(assert (not (= symbol_100018 symbol_100023)))
(assert (not (= symbol_100017 symbol_100023)))
(assert (not (= symbol_100016 symbol_100023)))
(assert (not (= symbol_100015 symbol_100023)))
(assert (not (= symbol_100014 symbol_100023)))
(assert (not (= symbol_100013 symbol_100023)))
(assert (not (= symbol_100012 symbol_100023)))
(assert (not (= symbol_100011 symbol_100023)))
(assert (not (= symbol_100010 symbol_100023)))
(assert (not (= symbol_100009 symbol_100023)))
(assert (not (= symbol_100008 symbol_100023)))
(assert (not (= symbol_100007 symbol_100023)))
(assert (not (= symbol_100006 symbol_100023)))
(assert (not (= symbol_100005 symbol_100023)))
(assert (not (= symbol_100004 symbol_100023)))
(assert (not (= symbol_100003 symbol_100023)))
(assert (not (= symbol_100002 symbol_100023)))
(assert (not (= symbol_100001 symbol_100023)))
(assert (not (= symbol_100000 symbol_100023)))
(assert (not (= symbol_100021 symbol_100022)))
(assert (not (= symbol_100020 symbol_100022)))
(assert (not (= symbol_100019 symbol_100022)))
(assert (not (= symbol_100018 symbol_100022)))
(assert (not (= symbol_100017 symbol_100022)))
(assert (not (= symbol_100016 symbol_100022)))
(assert (not (= symbol_100015 symbol_100022)))
(assert (not (= symbol_100014 symbol_100022)))
(assert (not (= symbol_100013 symbol_100022)))
(assert (not (= symbol_100012 symbol_100022)))
(assert (not (= symbol_100011 symbol_100022)))
(assert (not (= symbol_100010 symbol_100022)))
(assert (not (= symbol_100009 symbol_100022)))
(assert (not (= symbol_100008 symbol_100022)))
(assert (not (= symbol_100007 symbol_100022)))
(assert (not (= symbol_100006 symbol_100022)))
(assert (not (= symbol_100005 symbol_100022)))
(assert (not (= symbol_100004 symbol_100022)))
(assert (not (= symbol_100003 symbol_100022)))
(assert (not (= symbol_100002 symbol_100022)))
(assert (not (= symbol_100001 symbol_100022)))
(assert (not (= symbol_100000 symbol_100022)))
(assert (not (= symbol_100020 symbol_100021)))
(assert (not (= symbol_100019 symbol_100021)))
(assert (not (= symbol_100018 symbol_100021)))
(assert (not (= symbol_100017 symbol_100021)))
(assert (not (= symbol_100016 symbol_100021)))
(assert (not (= symbol_100015 symbol_100021)))
(assert (not (= symbol_100014 symbol_100021)))
(assert (not (= symbol_100013 symbol_100021)))
(assert (not (= symbol_100012 symbol_100021)))
(assert (not (= symbol_100011 symbol_100021)))
(assert (not (= symbol_100010 symbol_100021)))
(assert (not (= symbol_100009 symbol_100021)))
(assert (not (= symbol_100008 symbol_100021)))
(assert (not (= symbol_100007 symbol_100021)))
(assert (not (= symbol_100006 symbol_100021)))
(assert (not (= symbol_100005 symbol_100021)))
(assert (not (= symbol_100004 symbol_100021)))
(assert (not (= symbol_100003 symbol_100021)))
(assert (not (= symbol_100002 symbol_100021)))
(assert (not (= symbol_100001 symbol_100021)))
(assert (not (= symbol_100000 symbol_100021)))
(assert (not (= symbol_100019 symbol_100020)))
(assert (not (= symbol_100018 symbol_100020)))
(assert (not (= symbol_100017 symbol_100020)))
(assert (not (= symbol_100016 symbol_100020)))
(assert (not (= symbol_100015 symbol_100020)))
(assert (not (= symbol_100014 symbol_100020)))
(assert (not (= symbol_100013 symbol_100020)))
(assert (not (= symbol_100012 symbol_100020)))
(assert (not (= symbol_100011 symbol_100020)))
(assert (not (= symbol_100010 symbol_100020)))
(assert (not (= symbol_100009 symbol_100020)))
(assert (not (= symbol_100008 symbol_100020)))
(assert (not (= symbol_100007 symbol_100020)))
(assert (not (= symbol_100006 symbol_100020)))
(assert (not (= symbol_100005 symbol_100020)))
(assert (not (= symbol_100004 symbol_100020)))
(assert (not (= symbol_100003 symbol_100020)))
(assert (not (= symbol_100002 symbol_100020)))
(assert (not (= symbol_100001 symbol_100020)))
(assert (not (= symbol_100000 symbol_100020)))
(assert (not (= symbol_100018 symbol_100019)))
(assert (not (= symbol_100017 symbol_100019)))
(assert (not (= symbol_100016 symbol_100019)))
(assert (not (= symbol_100015 symbol_100019)))
(assert (not (= symbol_100014 symbol_100019)))
(assert (not (= symbol_100013 symbol_100019)))
(assert (not (= symbol_100012 symbol_100019)))
(assert (not (= symbol_100011 symbol_100019)))
(assert (not (= symbol_100010 symbol_100019)))
(assert (not (= symbol_100009 symbol_100019)))
(assert (not (= symbol_100008 symbol_100019)))
(assert (not (= symbol_100007 symbol_100019)))
(assert (not (= symbol_100006 symbol_100019)))
(assert (not (= symbol_100005 symbol_100019)))
(assert (not (= symbol_100004 symbol_100019)))
(assert (not (= symbol_100003 symbol_100019)))
(assert (not (= symbol_100002 symbol_100019)))
(assert (not (= symbol_100001 symbol_100019)))
(assert (not (= symbol_100000 symbol_100019)))
(assert (not (= symbol_100017 symbol_100018)))
(assert (not (= symbol_100016 symbol_100018)))
(assert (not (= symbol_100015 symbol_100018)))
(assert (not (= symbol_100014 symbol_100018)))
(assert (not (= symbol_100013 symbol_100018)))
(assert (not (= symbol_100012 symbol_100018)))
(assert (not (= symbol_100011 symbol_100018)))
(assert (not (= symbol_100010 symbol_100018)))
(assert (not (= symbol_100009 symbol_100018)))
(assert (not (= symbol_100008 symbol_100018)))
(assert (not (= symbol_100007 symbol_100018)))
(assert (not (= symbol_100006 symbol_100018)))
(assert (not (= symbol_100005 symbol_100018)))
(assert (not (= symbol_100004 symbol_100018)))
(assert (not (= symbol_100003 symbol_100018)))
(assert (not (= symbol_100002 symbol_100018)))
(assert (not (= symbol_100001 symbol_100018)))
(assert (not (= symbol_100000 symbol_100018)))
(assert (not (= symbol_100016 symbol_100017)))
(assert (not (= symbol_100015 symbol_100017)))
(assert (not (= symbol_100014 symbol_100017)))
(assert (not (= symbol_100013 symbol_100017)))
(assert (not (= symbol_100012 symbol_100017)))
(assert (not (= symbol_100011 symbol_100017)))
(assert (not (= symbol_100010 symbol_100017)))
(assert (not (= symbol_100009 symbol_100017)))
(assert (not (= symbol_100008 symbol_100017)))
(assert (not (= symbol_100007 symbol_100017)))
(assert (not (= symbol_100006 symbol_100017)))
(assert (not (= symbol_100005 symbol_100017)))
(assert (not (= symbol_100004 symbol_100017)))
(assert (not (= symbol_100003 symbol_100017)))
(assert (not (= symbol_100002 symbol_100017)))
(assert (not (= symbol_100001 symbol_100017)))
(assert (not (= symbol_100000 symbol_100017)))
(assert (not (= symbol_100015 symbol_100016)))
(assert (not (= symbol_100014 symbol_100016)))
(assert (not (= symbol_100013 symbol_100016)))
(assert (not (= symbol_100012 symbol_100016)))
(assert (not (= symbol_100011 symbol_100016)))
(assert (not (= symbol_100010 symbol_100016)))
(assert (not (= symbol_100009 symbol_100016)))
(assert (not (= symbol_100008 symbol_100016)))
(assert (not (= symbol_100007 symbol_100016)))
(assert (not (= symbol_100006 symbol_100016)))
(assert (not (= symbol_100005 symbol_100016)))
(assert (not (= symbol_100004 symbol_100016)))
(assert (not (= symbol_100003 symbol_100016)))
(assert (not (= symbol_100002 symbol_100016)))
(assert (not (= symbol_100001 symbol_100016)))
(assert (not (= symbol_100000 symbol_100016)))
(assert (not (= symbol_100014 symbol_100015)))
(assert (not (= symbol_100013 symbol_100015)))
(assert (not (= symbol_100012 symbol_100015)))
(assert (not (= symbol_100011 symbol_100015)))
(assert (not (= symbol_100010 symbol_100015)))
(assert (not (= symbol_100009 symbol_100015)))
(assert (not (= symbol_100008 symbol_100015)))
(assert (not (= symbol_100007 symbol_100015)))
(assert (not (= symbol_100006 symbol_100015)))
(assert (not (= symbol_100005 symbol_100015)))
(assert (not (= symbol_100004 symbol_100015)))
(assert (not (= symbol_100003 symbol_100015)))
(assert (not (= symbol_100002 symbol_100015)))
(assert (not (= symbol_100001 symbol_100015)))
(assert (not (= symbol_100000 symbol_100015)))
(assert (not (= symbol_100013 symbol_100014)))
(assert (not (= symbol_100012 symbol_100014)))
(assert (not (= symbol_100011 symbol_100014)))
(assert (not (= symbol_100010 symbol_100014)))
(assert (not (= symbol_100009 symbol_100014)))
(assert (not (= symbol_100008 symbol_100014)))
(assert (not (= symbol_100007 symbol_100014)))
(assert (not (= symbol_100006 symbol_100014)))
(assert (not (= symbol_100005 symbol_100014)))
(assert (not (= symbol_100004 symbol_100014)))
(assert (not (= symbol_100003 symbol_100014)))
(assert (not (= symbol_100002 symbol_100014)))
(assert (not (= symbol_100001 symbol_100014)))
(assert (not (= symbol_100000 symbol_100014)))
(assert (not (= symbol_100012 symbol_100013)))
(assert (not (= symbol_100011 symbol_100013)))
(assert (not (= symbol_100010 symbol_100013)))
(assert (not (= symbol_100009 symbol_100013)))
(assert (not (= symbol_100008 symbol_100013)))
(assert (not (= symbol_100007 symbol_100013)))
(assert (not (= symbol_100006 symbol_100013)))
(assert (not (= symbol_100005 symbol_100013)))
(assert (not (= symbol_100004 symbol_100013)))
(assert (not (= symbol_100003 symbol_100013)))
(assert (not (= symbol_100002 symbol_100013)))
(assert (not (= symbol_100001 symbol_100013)))
(assert (not (= symbol_100000 symbol_100013)))
(assert (not (= symbol_100011 symbol_100012)))
(assert (not (= symbol_100010 symbol_100012)))
(assert (not (= symbol_100009 symbol_100012)))
(assert (not (= symbol_100008 symbol_100012)))
(assert (not (= symbol_100007 symbol_100012)))
(assert (not (= symbol_100006 symbol_100012)))
(assert (not (= symbol_100005 symbol_100012)))
(assert (not (= symbol_100004 symbol_100012)))
(assert (not (= symbol_100003 symbol_100012)))
(assert (not (= symbol_100002 symbol_100012)))
(assert (not (= symbol_100001 symbol_100012)))
(assert (not (= symbol_100000 symbol_100012)))
(assert (not (= symbol_100010 symbol_100011)))
(assert (not (= symbol_100009 symbol_100011)))
(assert (not (= symbol_100008 symbol_100011)))
(assert (not (= symbol_100007 symbol_100011)))
(assert (not (= symbol_100006 symbol_100011)))
(assert (not (= symbol_100005 symbol_100011)))
(assert (not (= symbol_100004 symbol_100011)))
(assert (not (= symbol_100003 symbol_100011)))
(assert (not (= symbol_100002 symbol_100011)))
(assert (not (= symbol_100001 symbol_100011)))
(assert (not (= symbol_100000 symbol_100011)))
(assert (not (= symbol_100009 symbol_100010)))
(assert (not (= symbol_100008 symbol_100010)))
(assert (not (= symbol_100007 symbol_100010)))
(assert (not (= symbol_100006 symbol_100010)))
(assert (not (= symbol_100005 symbol_100010)))
(assert (not (= symbol_100004 symbol_100010)))
(assert (not (= symbol_100003 symbol_100010)))
(assert (not (= symbol_100002 symbol_100010)))
(assert (not (= symbol_100001 symbol_100010)))
(assert (not (= symbol_100000 symbol_100010)))
(assert (not (= symbol_100008 symbol_100009)))
(assert (not (= symbol_100007 symbol_100009)))
(assert (not (= symbol_100006 symbol_100009)))
(assert (not (= symbol_100005 symbol_100009)))
(assert (not (= symbol_100004 symbol_100009)))
(assert (not (= symbol_100003 symbol_100009)))
(assert (not (= symbol_100002 symbol_100009)))
(assert (not (= symbol_100001 symbol_100009)))
(assert (not (= symbol_100000 symbol_100009)))
(assert (not (= symbol_100007 symbol_100008)))
(assert (not (= symbol_100006 symbol_100008)))
(assert (not (= symbol_100005 symbol_100008)))
(assert (not (= symbol_100004 symbol_100008)))
(assert (not (= symbol_100003 symbol_100008)))
(assert (not (= symbol_100002 symbol_100008)))
(assert (not (= symbol_100001 symbol_100008)))
(assert (not (= symbol_100000 symbol_100008)))
(assert (not (= symbol_100006 symbol_100007)))
(assert (not (= symbol_100005 symbol_100007)))
(assert (not (= symbol_100004 symbol_100007)))
(assert (not (= symbol_100003 symbol_100007)))
(assert (not (= symbol_100002 symbol_100007)))
(assert (not (= symbol_100001 symbol_100007)))
(assert (not (= symbol_100000 symbol_100007)))
(assert (not (= symbol_100005 symbol_100006)))
(assert (not (= symbol_100004 symbol_100006)))
(assert (not (= symbol_100003 symbol_100006)))
(assert (not (= symbol_100002 symbol_100006)))
(assert (not (= symbol_100001 symbol_100006)))
(assert (not (= symbol_100000 symbol_100006)))
(assert (not (= symbol_100004 symbol_100005)))
(assert (not (= symbol_100003 symbol_100005)))
(assert (not (= symbol_100002 symbol_100005)))
(assert (not (= symbol_100001 symbol_100005)))
(assert (not (= symbol_100000 symbol_100005)))
(assert (not (= symbol_100003 symbol_100004)))
(assert (not (= symbol_100002 symbol_100004)))
(assert (not (= symbol_100001 symbol_100004)))
(assert (not (= symbol_100000 symbol_100004)))
(assert (not (= symbol_100002 symbol_100003)))
(assert (not (= symbol_100001 symbol_100003)))
(assert (not (= symbol_100000 symbol_100003)))
(assert (not (= symbol_100001 symbol_100002)))
(assert (not (= symbol_100000 symbol_100002)))
(assert (not (= symbol_100000 symbol_100001)))
(check-sat)